(set-logic QF_UF)
(declare-fun A0 () Bool)
(declare-fun A2 () Bool)
(declare-fun A3 () Bool)
(declare-fun A4 () Bool)
(declare-fun A5 () Bool)
(declare-fun A6 () Bool)
(declare-fun A7 () Bool)
(declare-fun A9 () Bool)
(declare-fun A10 () Bool)
(declare-fun A11 () Bool)
(declare-fun A12 () Bool)
(declare-fun A13 () Bool)
(declare-fun A14 () Bool)
(declare-fun A15 () Bool)
(declare-fun A16 () Bool)
(declare-fun A17 () Bool)
(declare-fun A18 () Bool)
(declare-fun A19 () Bool)
(declare-fun A20 () Bool)
(declare-fun A21 () Bool)
(declare-fun A22 () Bool)
(declare-fun A23 () Bool)
(declare-fun A24 () Bool)
(assert (let ((.def_0 (and A2 A2))) (let ((.def_1 (or A2 A12))) (let ((.def_2 (not .def_1))) (let ((.def_3 (or .def_2 .def_0))) (let ((.def_4 (not A17))) (let ((.def_5 (or .def_4 A4))) (let ((.def_6 (not A10))) (let ((.def_7 (and .def_6 A17))) (let ((.def_8 (or .def_7 .def_5))) (let ((.def_9 (and .def_8 .def_3))) (let ((.def_10 (not A22))) (let ((.def_11 (not A14))) (let ((.def_12 (and .def_11 .def_10))) (let ((.def_13 (not .def_12))) (let ((.def_14 (and .def_10 A16))) (let ((.def_15 (and .def_14 .def_13))) (let ((.def_16 (not .def_15))) (let ((.def_17 (not A18))) (let ((.def_18 (and A13 .def_17))) (let ((.def_19 (not .def_18))) (let ((.def_20 (and A10 A17))) (let ((.def_21 (not .def_20))) (let ((.def_22 (or .def_21 .def_19))) (let ((.def_23 (not .def_22))) (let ((.def_24 (and .def_23 .def_16))) (let ((.def_25 (and .def_24 .def_9))) (let ((.def_26 (not .def_25))) (let ((.def_27 (and A13 A20))) (let ((.def_28 (or A6 A2))) (let ((.def_29 (or .def_28 .def_27))) (let ((.def_30 (not A20))) (let ((.def_31 (not A12))) (let ((.def_32 (and .def_31 .def_30))) (let ((.def_33 (not .def_32))) (let ((.def_34 (not A19))) (let ((.def_35 (or .def_34 A4))) (let ((.def_36 (or .def_35 .def_33))) (let ((.def_37 (not .def_36))) (let ((.def_38 (and .def_37 .def_29))) (let ((.def_39 (not A7))) (let ((.def_40 (not A5))) (let ((.def_41 (or .def_40 .def_39))) (let ((.def_42 (or .def_11 A14))) (let ((.def_43 (not .def_42))) (let ((.def_44 (or .def_43 .def_41))) (let ((.def_45 (not A23))) (let ((.def_46 (and .def_45 A23))) (let ((.def_47 (or A0 A23))) (let ((.def_48 (or .def_47 .def_46))) (let ((.def_49 (not .def_48))) (let ((.def_50 (= .def_49 .def_44))) (let ((.def_51 (or .def_50 .def_38))) (let ((.def_52 (and .def_51 .def_26))) (let ((.def_53 (and A16 .def_34))) (let ((.def_54 (not .def_53))) (let ((.def_55 (or .def_39 A21))) (let ((.def_56 (= .def_55 .def_54))) (let ((.def_57 (not .def_56))) (let ((.def_58 (not A6))) (let ((.def_59 (or A3 .def_58))) (let ((.def_60 (not A2))) (let ((.def_61 (or .def_60 A18))) (let ((.def_62 (not .def_61))) (let ((.def_63 (or .def_62 .def_59))) (let ((.def_64 (not .def_63))) (let ((.def_65 (and .def_64 .def_57))) (let ((.def_66 (not .def_65))) (let ((.def_67 (not A16))) (let ((.def_68 (not A0))) (let ((.def_69 (and .def_68 .def_67))) (let ((.def_70 (not .def_69))) (let ((.def_71 (not A24))) (let ((.def_72 (or .def_71 A19))) (let ((.def_73 (not .def_72))) (let ((.def_74 (and .def_73 .def_70))) (let ((.def_75 (not .def_74))) (let ((.def_76 (or .def_30 A12))) (let ((.def_77 (and .def_40 A6))) (let ((.def_78 (not .def_77))) (let ((.def_79 (or .def_78 .def_76))) (let ((.def_80 (not .def_79))) (let ((.def_81 (and .def_80 .def_75))) (let ((.def_82 (not .def_81))) (let ((.def_83 (and .def_82 .def_66))) (let ((.def_84 (not .def_83))) (let ((.def_85 (not A11))) (let ((.def_86 (or .def_40 .def_85))) (let ((.def_87 (not .def_86))) (let ((.def_88 (and .def_31 A10))) (let ((.def_89 (not .def_88))) (let ((.def_90 (and .def_89 .def_87))) (let ((.def_91 (not .def_90))) (let ((.def_92 (and .def_71 A5))) (let ((.def_93 (or A24 A15))) (let ((.def_94 (or .def_93 .def_92))) (let ((.def_95 (not .def_94))) (let ((.def_96 (and .def_95 .def_91))) (let ((.def_97 (and A17 A22))) (let ((.def_98 (or A9 .def_31))) (let ((.def_99 (not .def_98))) (let ((.def_100 (or .def_99 .def_97))) (let ((.def_101 (not .def_100))) (let ((.def_102 (and .def_34 A3))) (let ((.def_103 (and A2 A16))) (let ((.def_104 (or .def_103 .def_102))) (let ((.def_105 (not .def_104))) (let ((.def_106 (and .def_105 .def_101))) (let ((.def_107 (not .def_106))) (let ((.def_108 (and .def_107 .def_96))) (let ((.def_109 (or .def_108 .def_84))) (let ((.def_110 (not .def_109))) (let ((.def_111 (or .def_110 .def_52))) (let ((.def_112 (not .def_111))) .def_112))))))))))))))))))))))))))))))))))))))))))))))))))))))))))))))))))))))))))))))))))))))))))))))))))))))))))))))))))
(check-sat)
